unsat
(:max-memory         18.15
 :memory             18.05
 :nlsat-conflicts    5
 :nlsat-propagations 15
 :nlsat-stages       5
 :num-allocs         36882
 :rlimit-count       9559
 :time               0.01
 :total-time         0.01)
